(set-logic HORN)
(declare-datatypes ((Sign_6 0)) (((Pos_3 ) (Neg_4 ))))
(declare-fun diseqSign_3 (Sign_6 Sign_6) Bool)
(declare-fun isPos_3 (Sign_6) Bool)
(declare-fun isNeg_3 (Sign_6) Bool)
(assert (isPos_3 Pos_3))
(assert (isNeg_3 Neg_4))
(assert (diseqSign_3 Pos_3 Neg_4))
(assert (diseqSign_3 Neg_4 Pos_3))
(declare-datatypes ((Nat_393 0)) (((zero_92 ) (succ_90 (p_260 Nat_393)))))
(declare-fun diseqNat_393 (Nat_393 Nat_393) Bool)
(declare-fun p_262 (Nat_393 Nat_393) Bool)
(declare-fun iszero_90 (Nat_393) Bool)
(declare-fun issucc_90 (Nat_393) Bool)
(assert (forall ((x_42380 Nat_393))
	(p_262 x_42380 (succ_90 x_42380))))
(assert (iszero_90 zero_92))
(assert (forall ((x_42382 Nat_393))
	(issucc_90 (succ_90 x_42382))))
(assert (forall ((x_42383 Nat_393))
	(diseqNat_393 zero_92 (succ_90 x_42383))))
(assert (forall ((x_42384 Nat_393))
	(diseqNat_393 (succ_90 x_42384) zero_92)))
(assert (forall ((x_42385 Nat_393) (x_42386 Nat_393))
	(=> (diseqNat_393 x_42385 x_42386)
	    (diseqNat_393 (succ_90 x_42385) (succ_90 x_42386)))))
(declare-datatypes ((Integer_6 0)) (((P_261 (projP_12 Nat_393)) (N_79 (projN_12 Nat_393)))))
(declare-fun diseqInteger_6 (Integer_6 Integer_6) Bool)
(declare-fun projP_13 (Nat_393 Integer_6) Bool)
(declare-fun projN_13 (Nat_393 Integer_6) Bool)
(declare-fun isP_8 (Integer_6) Bool)
(declare-fun isN_6 (Integer_6) Bool)
(assert (forall ((x_42387 Nat_393))
	(projP_13 x_42387 (P_261 x_42387))))
(assert (forall ((x_42389 Nat_393))
	(projN_13 x_42389 (N_79 x_42389))))
(assert (forall ((x_42391 Nat_393))
	(isP_8 (P_261 x_42391))))
(assert (forall ((x_42392 Nat_393))
	(isN_6 (N_79 x_42392))))
(assert (forall ((x_42393 Nat_393) (x_42394 Nat_393))
	(diseqInteger_6 (P_261 x_42393) (N_79 x_42394))))
(assert (forall ((x_42395 Nat_393) (x_42396 Nat_393))
	(diseqInteger_6 (N_79 x_42395) (P_261 x_42396))))
(assert (forall ((x_42397 Nat_393) (x_42398 Nat_393))
	(=> (diseqNat_393 x_42397 x_42398)
	    (diseqInteger_6 (P_261 x_42397) (P_261 x_42398)))))
(assert (forall ((x_42399 Nat_393) (x_42400 Nat_393))
	(=> (diseqNat_393 x_42399 x_42400)
	    (diseqInteger_6 (N_79 x_42399) (N_79 x_42400)))))
(declare-fun toInteger_3 (Integer_6 Sign_6 Nat_393) Bool)
(assert (forall ((z_1366 Nat_393))
	(toInteger_3 (N_79 z_1366) Neg_4 (succ_90 z_1366))))
(assert (toInteger_3 (P_261 zero_92) Neg_4 zero_92))
(assert (forall ((y_1502 Nat_393))
	(toInteger_3 (P_261 y_1502) Pos_3 y_1502)))
(declare-fun sign_7 (Sign_6 Integer_6) Bool)
(assert (forall ((z_1367 Nat_393))
	(sign_7 Neg_4 (N_79 z_1367))))
(assert (forall ((y_1503 Nat_393))
	(sign_7 Pos_3 (P_261 y_1503))))
(declare-fun plus_91 (Nat_393 Nat_393 Nat_393) Bool)
(assert (forall ((x_42322 Nat_393) (z_1368 Nat_393) (y_1504 Nat_393))
	(=> (plus_91 x_42322 z_1368 y_1504)
	    (plus_91 (succ_90 x_42322) (succ_90 z_1368) y_1504))))
(assert (forall ((x_42323 Nat_393))
	(plus_91 x_42323 zero_92 x_42323)))
(declare-fun times_22 (Nat_393 Nat_393 Nat_393) Bool)
(assert (forall ((x_42324 Nat_393) (x_42325 Nat_393) (z_1369 Nat_393) (y_1505 Nat_393))
	(=>	(and (times_22 x_42325 z_1369 y_1505)
			(plus_91 x_42324 y_1505 x_42325))
		(times_22 x_42324 (succ_90 z_1369) y_1505))))
(assert (forall ((y_1505 Nat_393))
	(times_22 zero_92 zero_92 y_1505)))
(declare-fun opposite_3 (Sign_6 Sign_6) Bool)
(assert (opposite_3 Pos_3 Neg_4))
(assert (opposite_3 Neg_4 Pos_3))
(declare-fun timesSign_3 (Sign_6 Sign_6 Sign_6) Bool)
(assert (forall ((x_42330 Sign_6) (y_1506 Sign_6))
	(=> (opposite_3 x_42330 y_1506)
	    (timesSign_3 x_42330 Neg_4 y_1506))))
(assert (forall ((x_42332 Sign_6))
	(timesSign_3 x_42332 Pos_3 x_42332)))
(declare-fun absVal_3 (Nat_393 Integer_6) Bool)
(assert (forall ((x_42333 Nat_393) (m_30 Nat_393))
	(=> (plus_91 x_42333 (succ_90 zero_92) m_30)
	    (absVal_3 x_42333 (N_79 m_30)))))
(assert (forall ((n_80 Nat_393))
	(absVal_3 n_80 (P_261 n_80))))
(declare-fun times_23 (Integer_6 Integer_6 Integer_6) Bool)
(assert (forall ((x_42336 Integer_6) (x_42337 Sign_6) (x_42338 Sign_6) (x_42339 Sign_6) (x_42340 Nat_393) (x_42341 Nat_393) (x_42342 Nat_393) (x_42302 Integer_6) (y_1507 Integer_6))
	(=>	(and (sign_7 x_42337 x_42302)
			(sign_7 x_42338 y_1507)
			(timesSign_3 x_42339 x_42337 x_42338)
			(absVal_3 x_42340 x_42302)
			(absVal_3 x_42341 y_1507)
			(times_22 x_42342 x_42340 x_42341)
			(toInteger_3 x_42336 x_42339 x_42342))
		(times_23 x_42336 x_42302 y_1507))))
(assert (forall ((x_42344 Integer_6) (x_42345 Integer_6) (x_42346 Integer_6) (x_42347 Integer_6) (x_42303 Integer_6) (y_1508 Integer_6) (z_1370 Integer_6))
	(=>	(and true
			(diseqInteger_6 x_42345 x_42347)
			(times_23 x_42344 y_1508 z_1370)
			(times_23 x_42345 x_42303 x_42344)
			(times_23 x_42346 x_42303 y_1508)
			(times_23 x_42347 x_42346 z_1370))
		false)))
(assert (forall ((x_42348 Nat_393) (x_42349 Nat_393) (x_42350 Nat_393) (x_42351 Nat_393) (x_42304 Nat_393) (y_1509 Nat_393) (z_1371 Nat_393))
	(=>	(and true
			(diseqNat_393 x_42349 x_42351)
			(times_22 x_42348 y_1509 z_1371)
			(times_22 x_42349 x_42304 x_42348)
			(times_22 x_42350 x_42304 y_1509)
			(times_22 x_42351 x_42350 z_1371))
		false)))
(assert (forall ((x_42352 Nat_393) (x_42353 Nat_393) (x_42354 Nat_393) (x_42355 Nat_393) (x_42305 Nat_393) (y_1510 Nat_393) (z_1372 Nat_393))
	(=>	(and true
			(diseqNat_393 x_42353 x_42355)
			(plus_91 x_42352 y_1510 z_1372)
			(plus_91 x_42353 x_42305 x_42352)
			(plus_91 x_42354 x_42305 y_1510)
			(plus_91 x_42355 x_42354 z_1372))
		false)))
(assert (forall ((x_42356 Nat_393) (x_42357 Nat_393) (x_42306 Nat_393) (y_1511 Nat_393))
	(=>	(and true
			(diseqNat_393 x_42356 x_42357)
			(times_22 x_42356 x_42306 y_1511)
			(times_22 x_42357 y_1511 x_42306))
		false)))
(assert (forall ((x_42358 Nat_393) (x_42359 Nat_393) (x_42307 Nat_393) (y_1512 Nat_393))
	(=>	(and true
			(diseqNat_393 x_42358 x_42359)
			(plus_91 x_42358 x_42307 y_1512)
			(plus_91 x_42359 y_1512 x_42307))
		false)))
(assert (forall ((x_42360 Nat_393) (x_42361 Nat_393) (x_42362 Nat_393) (x_42363 Nat_393) (x_42364 Nat_393) (x_42308 Nat_393) (y_1513 Nat_393) (z_1373 Nat_393))
	(=>	(and true
			(diseqNat_393 x_42361 x_42364)
			(plus_91 x_42360 y_1513 z_1373)
			(times_22 x_42361 x_42308 x_42360)
			(times_22 x_42362 x_42308 y_1513)
			(times_22 x_42363 x_42308 z_1373)
			(plus_91 x_42364 x_42362 x_42363))
		false)))
(assert (forall ((x_42365 Nat_393) (x_42366 Nat_393) (x_42367 Nat_393) (x_42368 Nat_393) (x_42369 Nat_393) (x_42309 Nat_393) (y_1514 Nat_393) (z_1374 Nat_393))
	(=>	(and true
			(diseqNat_393 x_42366 x_42369)
			(plus_91 x_42365 x_42309 y_1514)
			(times_22 x_42366 x_42365 z_1374)
			(times_22 x_42367 x_42309 z_1374)
			(times_22 x_42368 y_1514 z_1374)
			(plus_91 x_42369 x_42367 x_42368))
		false)))
(assert (forall ((x_42370 Nat_393) (x_42310 Nat_393))
	(=>	(and true
			(diseqNat_393 x_42370 x_42310)
			(times_22 x_42370 x_42310 (succ_90 zero_92)))
		false)))
(assert (forall ((x_42371 Nat_393) (x_42311 Nat_393))
	(=>	(and true
			(diseqNat_393 x_42371 x_42311)
			(times_22 x_42371 (succ_90 zero_92) x_42311))
		false)))
(assert (forall ((x_42372 Nat_393) (x_42312 Nat_393))
	(=>	(and true
			(diseqNat_393 x_42372 x_42312)
			(plus_91 x_42372 x_42312 zero_92))
		false)))
(assert (forall ((x_42373 Nat_393) (x_42313 Nat_393))
	(=>	(and true
			(diseqNat_393 x_42373 x_42313)
			(plus_91 x_42373 zero_92 x_42313))
		false)))
(assert (forall ((x_42374 Nat_393) (x_42314 Nat_393))
	(=>	(and true
			(diseqNat_393 x_42374 zero_92)
			(times_22 x_42374 x_42314 zero_92))
		false)))
(assert (forall ((x_42375 Nat_393) (x_42315 Nat_393))
	(=>	(and true
			(diseqNat_393 x_42375 zero_92)
			(times_22 x_42375 zero_92 x_42315))
		false)))
(check-sat)
